cost: 511.38
Route 1:           0   46   37   44   15   45   33   39   10   30   34   21   29   16   50    9   49    5   38   11    0
Route 2:           0   27   48    8   26   31   28    3   36   35   20    2   22    1   32    0
Route 3:           0    6   23    7   43   24   14   25   18   13   41   40   19   42   17    4   47   12    0
